npieces = 10;	
nplayers = 25;	
duration = [7, 5, 1, 2, 10, 3, 2, 9, 9, 2];
rehearsal = [[0, 1, 0, 1, 0, 0, 1, 0, 1, 1], [1, 0, 0, 0, 1, 1, 1, 1, 1, 1], [1, 1, 1, 0, 0, 1, 0, 1, 0, 1], [1, 1, 1, 1, 1, 0, 1, 0, 1, 1], [1, 0, 0, 1, 1, 1, 0, 1, 0, 1], [0, 1, 1, 1, 1, 0, 1, 0, 0, 1], [1, 1, 1, 0, 0, 0, 1, 1, 1, 0], [0, 0, 1, 1, 0, 0, 1, 0, 1, 0], [1, 1, 1, 0, 0, 0, 1, 1, 1, 1], [0, 1, 1, 0, 1, 0, 0, 1, 1, 1], [0, 1, 0, 0, 1, 0, 1, 1, 1, 1], [0, 1, 1, 0, 0, 0, 0, 1, 1, 1], [1, 1, 1, 0, 1, 1, 0, 1, 1, 1], [0, 1, 0, 0, 0, 1, 1, 1, 1, 0], [0, 1, 1, 0, 0, 0, 0, 1, 1, 1], [0, 1, 1, 1, 1, 0, 0, 1, 0, 1], [1, 0, 0, 0, 1, 0, 1, 1, 1, 1], [1, 0, 0, 1, 0, 1, 0, 0, 1, 1], [0, 0, 0, 1, 0, 1, 0, 1, 0, 1], [0, 0, 0, 0, 1, 0, 1, 0, 1, 0], [0, 0, 1, 1, 1, 1, 0, 1, 0, 1], [0, 0, 1, 0, 0, 1, 1, 0, 1, 1], [1, 0, 0, 1, 1, 0, 0, 1, 1, 0], [0, 1, 1, 1, 1, 0, 0, 1, 0, 1], [1, 1, 1, 1, 1, 0, 1, 1, 1, 0]];